100 3758
924 264 726 968 726 660 968 363 1188 132 132 1320 242 484 660 605 396 726 363 242 363 1210 484 605 1056 121 363 363 242 121 121 528 528 132 1320 924 847 132 132 660 847 847 924 605 528 1210 484 121 242 132 605 396 1210 792 484 1210 121 605 1089 1188 1056 264 363 968 660 132 660 1188 484 1089 396 1188 396 264 484 792 484 726 1188 484 1089 363 264 528 924 792 847 396 660 847 660 968 242 660 242 1056 1188 1210 1188 1056 
784 224 606 808 606 560 808 303 1008 112 112 1120 202 404 560 505 336 606 303 202 303 1010 404 505 896 101 303 303 202 101 101 448 448 112 1120 784 707 112 112 560 707 707 784 505 448 1010 404 101 202 112 505 336 1010 672 404 1010 101 505 909 1008 896 224 303 808 560 112 560 1008 404 909 336 1008 336 224 404 672 404 606 1008 404 909 303 224 448 784 672 707 336 560 707 560 808 202 560 202 896 1008 1010 1008 896 
